min: c;

c = 3.31763025094723 * u1_t7_h4 + 3.13703638963475 * u1_t7_h5 + 3.60075061113977 * u1_t5_h6 + 3.60075061113977 * u1_t7_h6 + 3.99793918405622 * u1_t5_h7 + 3.99793918405622 * u1_t7_h7 + 3.99793918405622 * u1_t9_h7 + 5.69206469130384 * u1_t5_h8 + 5.69206469130384 * u1_t7_h8 + 5.69206469130384 * u1_t9_h8 + 5.69206469130384 * u1_t10_h8 + 4.4760088577552 * u1_t5_h9 + 4.4760088577552 * u1_t7_h9 + 4.4760088577552 * u1_t9_h9 + 4.4760088577552 * u1_t10_h9 + 4.99188957491298 * u1_t5_h10 + 4.99188957491298 * u1_t7_h10 + 4.99188957491298 * u1_t9_h10 + 4.99188957491298 * u1_t10_h10 + 3.93461903969397 * u1_t5_h11 + 3.93461903969397 * u1_t9_h11 + 3.93461903969397 * u1_t10_h11 + 6.13121850521712 * u1_t4_h12 + 6.13121850521712 * u1_t5_h12 + 6.13121850521712 * u1_t8_h12 + 6.13121850521712 * u1_t9_h12 + 6.13121850521712 * u1_t10_h12 + 4.37979848610741 * u1_t4_h13 + 4.37979848610741 * u1_t8_h13 + 4.37979848610741 * u1_t9_h13 + 4.37979848610741 * u1_t10_h13 + 5.90421083245576 * u1_t4_h14 + 5.90421083245576 * u1_t8_h14 + 5.90421083245576 * u1_t9_h14 + 5.90421083245576 * u1_t10_h14 + 5.88326405412993 * u1_t4_h15 + 5.88326405412993 * u1_t8_h15 + 5.9350735625453 * u1_t4_h16 + 5.9350735625453 * u1_t8_h16 + 6.0142838464235 * u1_t4_h17 + 6.0142838464235 * u1_t8_h17 + 6.13690149709776 * u1_t2_h18 + 6.13690149709776 * u1_t4_h18 + 6.13690149709776 * u1_t6_h18 + 6.13690149709776 * u1_t8_h18 + 5.40601004692321 * u1_t2_h19 + 5.40601004692321 * u1_t3_h19 + 5.40601004692321 * u1_t4_h19 + 5.40601004692321 * u1_t6_h19 + 5.24022862694901 * u1_t1_h20 + 5.24022862694901 * u1_t2_h20 + 5.24022862694901 * u1_t3_h20 + 5.24022862694901 * u1_t4_h20 + 5.24022862694901 * u1_t6_h20 + 5.71375423406457 * u1_t1_h21 + 5.71375423406457 * u1_t2_h21 + 5.71375423406457 * u1_t3_h21 + 5.64976474683623 * u1_t1_h22 + 5.64976474683623 * u1_t2_h22 + 5.18415407772079 * u1_t1_h23 + 5.18415407772079 * u1_t2_h23;
0 <= u1_t1_h20 <= 1;
0 <= u1_t1_h21 <= 1;
0 <= u1_t1_h22 <= 1;
0 <= u1_t1_h23 <= 1;
u1_t1_h20 + u1_t1_h21 + u1_t1_h22 + u1_t1_h23 = 1;
0 <= u1_t2_h18 <= 1;
0 <= u1_t2_h19 <= 1;
0 <= u1_t2_h20 <= 1;
0 <= u1_t2_h21 <= 1;
0 <= u1_t2_h22 <= 1;
0 <= u1_t2_h23 <= 1;
u1_t2_h18 + u1_t2_h19 + u1_t2_h20 + u1_t2_h21 + u1_t2_h22 + u1_t2_h23 = 2;
0 <= u1_t3_h19 <= 1;
0 <= u1_t3_h20 <= 1;
0 <= u1_t3_h21 <= 1;
u1_t3_h19 + u1_t3_h20 + u1_t3_h21 = 1;
0 <= u1_t4_h12 <= 1;
0 <= u1_t4_h13 <= 1;
0 <= u1_t4_h14 <= 1;
0 <= u1_t4_h15 <= 1;
0 <= u1_t4_h16 <= 1;
0 <= u1_t4_h17 <= 1;
0 <= u1_t4_h18 <= 1;
0 <= u1_t4_h19 <= 1;
0 <= u1_t4_h20 <= 1;
u1_t4_h12 + u1_t4_h13 + u1_t4_h14 + u1_t4_h15 + u1_t4_h16 + u1_t4_h17 + u1_t4_h18 + u1_t4_h19 + u1_t4_h20 = 3;
0 <= u1_t5_h6 <= 1;
0 <= u1_t5_h7 <= 1;
0 <= u1_t5_h8 <= 1;
0 <= u1_t5_h9 <= 1;
0 <= u1_t5_h10 <= 1;
0 <= u1_t5_h11 <= 1;
0 <= u1_t5_h12 <= 1;
u1_t5_h6 + u1_t5_h7 + u1_t5_h8 + u1_t5_h9 + u1_t5_h10 + u1_t5_h11 + u1_t5_h12 = 3;
0 <= u1_t6_h18 <= 1;
0 <= u1_t6_h19 <= 1;
0 <= u1_t6_h20 <= 1;
u1_t6_h18 + u1_t6_h19 + u1_t6_h20 = 2;
0 <= u1_t7_h4 <= 1;
0 <= u1_t7_h5 <= 1;
0 <= u1_t7_h6 <= 1;
0 <= u1_t7_h7 <= 1;
0 <= u1_t7_h8 <= 1;
0 <= u1_t7_h9 <= 1;
0 <= u1_t7_h10 <= 1;
u1_t7_h4 + u1_t7_h5 + u1_t7_h6 + u1_t7_h7 + u1_t7_h8 + u1_t7_h9 + u1_t7_h10 = 2;
0 <= u1_t8_h12 <= 1;
0 <= u1_t8_h13 <= 1;
0 <= u1_t8_h14 <= 1;
0 <= u1_t8_h15 <= 1;
0 <= u1_t8_h16 <= 1;
0 <= u1_t8_h17 <= 1;
0 <= u1_t8_h18 <= 1;
u1_t8_h12 + u1_t8_h13 + u1_t8_h14 + u1_t8_h15 + u1_t8_h16 + u1_t8_h17 + u1_t8_h18 = 2;
0 <= u1_t9_h7 <= 1;
0 <= u1_t9_h8 <= 1;
0 <= u1_t9_h9 <= 1;
0 <= u1_t9_h10 <= 1;
0 <= u1_t9_h11 <= 1;
0 <= u1_t9_h12 <= 1;
0 <= u1_t9_h13 <= 1;
0 <= u1_t9_h14 <= 1;
u1_t9_h7 + u1_t9_h8 + u1_t9_h9 + u1_t9_h10 + u1_t9_h11 + u1_t9_h12 + u1_t9_h13 + u1_t9_h14 = 3;
0 <= u1_t10_h8 <= 1;
0 <= u1_t10_h9 <= 1;
0 <= u1_t10_h10 <= 1;
0 <= u1_t10_h11 <= 1;
0 <= u1_t10_h12 <= 1;
0 <= u1_t10_h13 <= 1;
0 <= u1_t10_h14 <= 1;
u1_t10_h8 + u1_t10_h9 + u1_t10_h10 + u1_t10_h11 + u1_t10_h12 + u1_t10_h13 + u1_t10_h14 = 3;
